c ! encoding i-pc 250
p cnf 406 543
-251 0
153 -252 0
5 -253 0
27 -254 0
159 -255 0
193 -256 0
161 -257 0
251 -258 0
251 -259 0
251 -260 0
261 0
262 -263 0
263 -264 0
128 -264 0
240 -265 0
-128 -265 0
264 265 -266 0
57 -267 0
171 -267 0
268 -269 0
269 -270 0
-171 -270 0
267 270 -271 0
-65 -272 0
-163 -272 0
-203 -272 0
266 -273 0
271 -273 0
272 -273 0
273 -275 0
274 -275 0
275 -276 0
94 -276 0
240 -277 0
163 -277 0
262 -278 0
278 -279 0
-163 -279 0
277 279 -280 0
280 -281 0
128 -281 0
240 -283 0
282 -283 0
283 -284 0
-128 -284 0
281 284 -285 0
285 -287 0
286 -287 0
268 -287 0
287 -290 0
288 -290 0
289 -290 0
290 -291 0
-94 -291 0
231 -293 0
294 -295 0
295 -296 0
-231 -296 0
-86 -298 0
96 -298 0
299 -300 0
300 -301 0
-96 -301 0
298 301 -302 0
303 -304 0
304 -305 0
83 -305 0
160 -306 0
-83 -306 0
305 306 -307 0
71 -308 0
309 -315 0
310 -315 0
311 -315 0
312 -315 0
313 -315 0
314 -315 0
292 -316 0
297 -316 0
302 -316 0
307 -316 0
315 -316 0
251 -323 0
251 -326 0
251 -335 0
237 -339 0
251 -340 0
-86 -342 0
341 -342 0
342 -343 0
96 -343 0
299 -344 0
344 -345 0
-96 -345 0
343 345 -346 0
-71 -347 0
163 -347 0
240 -347 0
346 -348 0
347 -348 0
348 -351 0
349 -351 0
350 -351 0
351 -352 0
150 -352 0
302 -355 0
280 -355 0
353 -355 0
354 -355 0
355 -356 0
-150 -356 0
307 -358 0
223 -358 0
-160 -359 0
359 -360 0
-223 -360 0
311 -362 0
362 -363 0
146 -363 0
31 -364 0
-146 -364 0
-57 -366 0
128 -366 0
203 -366 0
310 -367 0
309 -367 0
313 -367 0
288 -367 0
314 -367 0
297 -368 0
357 -368 0
361 -368 0
365 -368 0
367 -368 0
251 -374 0
251 -377 0
-237 -380 0
381 -382 0
-161 -383 0
-193 -385 0
-159 -387 0
-27 -389 0
251 -392 0
-5 -395 0
251 -399 0
251 -402 0
-153 -405 0
-1 0
2 0
3 0
4 0
-6 0
-7 0
-8 0
-9 0
10 0
-11 0
-12 0
13 0
14 0
-15 0
16 0
17 0
-18 0
-19 0
20 0
21 0
-22 0
23 0
24 0
25 0
-28 0
29 0
30 0
-32 0
-33 0
34 0
35 0
36 0
38 0
-39 0
40 0
41 0
42 0
-43 0
44 0
-46 0
48 0
-49 0
-50 0
51 0
-52 0
-53 0
-54 0
-56 0
-58 0
60 0
-61 0
-62 0
-63 0
66 0
-67 0
-68 0
69 0
-70 0
73 0
-74 0
75 0
76 0
-77 0
78 0
-79 0
80 0
81 0
82 0
84 0
-85 0
88 0
89 0
-90 0
-91 0
-92 0
93 0
97 0
-98 0
99 0
100 0
101 0
102 0
-103 0
104 0
-105 0
-106 0
107 0
109 0
-110 0
-111 0
-112 0
113 0
114 0
115 0
118 0
-119 0
-120 0
121 0
122 0
123 0
124 0
125 0
126 0
-127 0
129 0
-130 0
132 0
133 0
-134 0
135 0
-136 0
-137 0
138 0
139 0
141 0
-143 0
-144 0
-145 0
147 0
149 0
-151 0
-152 0
154 0
155 0
-156 0
157 0
158 0
164 0
-165 0
-167 0
-168 0
172 0
173 0
174 0
-175 0
-176 0
-177 0
-178 0
179 0
180 0
181 0
-182 0
-183 0
185 0
186 0
187 0
188 0
190 0
191 0
192 0
-194 0
195 0
-196 0
-197 0
-198 0
-199 0
200 0
201 0
-202 0
204 0
205 0
-206 0
207 0
-208 0
209 0
210 0
211 0
213 0
-214 0
215 0
216 0
-217 0
-218 0
-219 0
220 0
221 0
-222 0
-224 0
226 0
227 0
-230 0
232 0
-233 0
234 0
-235 0
-236 0
238 0
-239 0
241 0
-242 0
-243 0
-244 0
-245 0
-246 0
247 0
-248 0
-249 0
-250 0
-405 406 0
59 399 0
-398 400 0
148 392 0
-391 393 0
-387 388 0
-385 386 0
-383 384 0
-382 383 0
55 374 0
-372 373 0
-371 372 0
-368 369 0
-366 368 0
-162 366 0
131 366 0
-95 366 0
72 366 0
26 366 0
146 364 0
-362 363 0
-361 368 0
-388 389 0
223 360 0
-358 361 0
-357 368 0
-356 357 0
-355 356 0
-354 355 0
-150 352 0
-350 351 0
-64 349 0
-348 351 0
-344 345 0
-343 346 0
-342 343 0
140 341 0
-338 339 0
-334 336 0
-404 405 0
-332 333 0
-331 333 0
-400 401 0
-328 329 0
-330 331 0
-325 327 0
-324 325 0
-322 324 0
-321 322 0
-320 321 0
166 335 377 0
-319 320 0
-318 319 0
-317 318 0
170 317 0
-395 396 0
142 314 0
-365 368 0
-142 314 0
-117 313 0
-394 395 0
-312 315 0
-311 315 362 0
43 382 0
-315 316 0
229 310 0
-229 310 0
-346 348 0
47 309 0
-47 309 0
-347 348 0
-401 403 0
-26 308 0
228 323 0
-303 304 0
-316 317 0
231 296 0
-128 264 281 366 0
-300 301 0
-299 300 344 0
-295 296 0
-298 302 0
212 294 0
240 262 0
-287 290 0
-290 291 0
-302 316 355 0
-273 275 0
116 350 0
-329 330 0
-262 263 278 0
-373 375 0
-367 368 0
86 298 299 342 0
-327 329 0
-171 267 0
-307 316 358 0
-282 283 0
-240 262 265 277 283 347 0
-293 297 0
-375 376 0
-279 280 0
-225 259 0
-284 285 0
-65 288 0
-364 365 0
-57 267 268 0
128 265 284 0
-231 293 0
57 268 366 0
-169 274 0
-351 352 0
-379 380 0
-281 285 0
-353 355 0
-148 391 0
-378 379 0
-283 284 0
-265 266 0
-184 366 0
-31 311 364 0
-296 297 0
-275 276 0
-268 269 287 0
-291 292 0
-294 295 0
-261 263 269 278 295 300 304 362 0
-45 258 340 0
-94 276 0
-286 287 0
-86 299 0
-270 271 0
-306 307 0
169 274 286 366 0
-274 275 0
112 394 0
-308 316 0
-96 298 343 0
-267 271 0
-269 270 0
-396 397 0
-59 398 0
-271 273 0
-272 273 0
83 306 0
-264 266 0
-266 273 0
-163 277 282 347 0
-304 305 0
189 366 0
-277 280 0
-384 385 0
-301 302 0
-288 290 367 0
-223 308 358 0
-370 372 0
-278 279 0
-386 387 0
95 308 0
65 272 288 0
162 308 0
-360 361 0
163 272 279 282 0
-72 308 0
-336 338 0
-83 305 359 0
-170 260 366 0
-285 287 0
31 311 0
184 308 0
-37 312 0
96 301 345 0
-189 308 0
-305 307 0
-345 346 0
117 313 0
-363 365 0
-3 328 366 0
218 404 0
-131 308 0
-263 264 0
-337 338 0
-333 334 0
-140 308 341 344 353 0
-369 370 0
-146 308 363 0
-389 390 0
-349 351 0
87 402 0
-341 342 0
108 326 0
111 337 371 0
-376 378 0
-280 281 355 0
127 332 366 0
-289 290 0
-292 316 0
-359 360 0
